Instance name:    bar-n100-4
Authors:          PDPTW Solver
Date:             2025-11-28
Reference:        LNS with SA/RTR
Solution
Route 1 : 20 50 70 100 37 30 87 80
Route 2 : 6 56 10 8 13 60 58 63 44 94
Route 3 : 31 27 77 81 43 33 83 93
Route 4 : 26 76 2 52 42 92 41 91
Route 5 : 47 97 9 59 48 98 34 84
Route 6 : 7 40 90 57
Route 7 : 36 29 86 49 79 4 54 99
Route 8 : 46 96 28 5 55 78 15 65
Route 9 : 38 88 21 71 22 14 64 72
Route 10 : 19 17 67 69 32 82 24 74
Route 11 : 3 53 25 23 75 73
Route 12 : 16 66 11 61 45 12 62 95
Route 13 : 18 1 68 39 51 35 89 85
